c description: Random 3-CNF over 8 variables and 16 clauses
p cnf 8 16
-3 -6 -7 0
4 -7 -8 0
1 -4 -7 0
-5 -6 8 0
1 2 -6 0
-3 4 -6 0
-1 -3 -5 0
-1 3 4 0
-3 5 6 0
3 -4 -6 0
1 -4 7 0
-2 -4 -5 0
-5 6 8 0
1 3 7 0
2 4 7 0
2 4 -6 0